; Query 0 -- Type: InitialValues, Instructions: 13448
; This file conforms to SMTLIBv2 and was generated by KLEE
(set-logic QF_AUFBV )
; Array declarations
; Constraints
; Constraints and QueryExpr
(assert
        true
)
(check-sat)
(exit)
;   OK -- Elapsed: 5.021695e-03s
;   Solvable: true

; Query 1 -- Type: InitialValues, Instructions: 13448
; This file conforms to SMTLIBv2 and was generated by KLEE
(set-option :produce-models true)
(set-logic QF_AUFBV )
; Array declarations
(declare-fun *CommBufferSize () (Array (_ BitVec 32) (_ BitVec 8) ) )
; Constraints
; Constraints and QueryExpr
(assert
        (= 
           (_ bv40 32)
           (concat 
                   (select 
                           *CommBufferSize
                           (_ bv3 32)
                   )
                   (concat 
                           (select 
                                   *CommBufferSize
                                   (_ bv2 32)
                           )
                           (concat 
                                   (select 
                                           *CommBufferSize
                                           (_ bv1 32)
                                   )
                                   (select 
                                           *CommBufferSize
                                           (_ bv0 32)
                                   )
                           )
                   )
           )
        )
)
(check-sat)
(get-value ( (select *CommBufferSize (_ bv0 32) ) ) )
(get-value ( (select *CommBufferSize (_ bv1 32) ) ) )
(get-value ( (select *CommBufferSize (_ bv2 32) ) ) )
(get-value ( (select *CommBufferSize (_ bv3 32) ) ) )
(exit)
;   OK -- Elapsed: 4.065631e-03s
;   Solvable: true
;     *CommBufferSize = [40,0,0,0]

; Query 2 -- Type: InitialValues, Instructions: 13458
; This file conforms to SMTLIBv2 and was generated by KLEE
(set-option :produce-models true)
(set-logic QF_AUFBV )
; Array declarations
(declare-fun SMRAM_BASE () (Array (_ BitVec 32) (_ BitVec 8) ) )
(declare-fun SMRAM_SIZE () (Array (_ BitVec 32) (_ BitVec 8) ) )
; Constraints
; Constraints and QueryExpr
(assert
        (bvule 
               (_ bv40 32)
               (bvadd 
                      (concat 
                              (select 
                                      SMRAM_BASE
                                      (_ bv3 32)
                              )
                              (concat 
                                      (select 
                                              SMRAM_BASE
                                              (_ bv2 32)
                                      )
                                      (concat 
                                              (select 
                                                      SMRAM_BASE
                                                      (_ bv1 32)
                                              )
                                              (select 
                                                      SMRAM_BASE
                                                      (_ bv0 32)
                                              )
                                      )
                              )
                      )
                      (concat 
                              (select 
                                      SMRAM_SIZE
                                      (_ bv3 32)
                              )
                              (concat 
                                      (select 
                                              SMRAM_SIZE
                                              (_ bv2 32)
                                      )
                                      (concat 
                                              (select 
                                                      SMRAM_SIZE
                                                      (_ bv1 32)
                                              )
                                              (select 
                                                      SMRAM_SIZE
                                                      (_ bv0 32)
                                              )
                                      )
                              )
                      )
               )
        )
)
(check-sat)
(get-value ( (select SMRAM_BASE (_ bv0 32) ) ) )
(get-value ( (select SMRAM_BASE (_ bv1 32) ) ) )
(get-value ( (select SMRAM_BASE (_ bv2 32) ) ) )
(get-value ( (select SMRAM_BASE (_ bv3 32) ) ) )
(get-value ( (select SMRAM_SIZE (_ bv0 32) ) ) )
(get-value ( (select SMRAM_SIZE (_ bv1 32) ) ) )
(get-value ( (select SMRAM_SIZE (_ bv2 32) ) ) )
(get-value ( (select SMRAM_SIZE (_ bv3 32) ) ) )
(exit)
;   OK -- Elapsed: 5.312230e-03s
;   Solvable: true
;     SMRAM_BASE = [40,0,0,0]
;     SMRAM_SIZE = [0,0,0,0]

; Query 3 -- Type: InitialValues, Instructions: 13475
; This file conforms to SMTLIBv2 and was generated by KLEE
(set-option :produce-models true)
(set-logic QF_AUFBV )
; Array declarations
(declare-fun SMRAM_BASE () (Array (_ BitVec 32) (_ BitVec 8) ) )
(declare-fun SMRAM_SIZE () (Array (_ BitVec 32) (_ BitVec 8) ) )
; Constraints
; Constraints and QueryExpr
(assert
        (let
            (
             (?B1
                 (bvadd 
                        (concat 
                                (select 
                                        SMRAM_BASE
                                        (_ bv3 32)
                                )
                                (concat 
                                        (select 
                                                SMRAM_BASE
                                                (_ bv2 32)
                                        )
                                        (concat 
                                                (select 
                                                        SMRAM_BASE
                                                        (_ bv1 32)
                                                )
                                                (select 
                                                        SMRAM_BASE
                                                        (_ bv0 32)
                                                )
                                        )
                                )
                        )
                        (concat 
                                (select 
                                        SMRAM_SIZE
                                        (_ bv3 32)
                                )
                                (concat 
                                        (select 
                                                SMRAM_SIZE
                                                (_ bv2 32)
                                        )
                                        (concat 
                                                (select 
                                                        SMRAM_SIZE
                                                        (_ bv1 32)
                                                )
                                                (select 
                                                        SMRAM_SIZE
                                                        (_ bv0 32)
                                                )
                                        )
                                )
                        )
                 )
             )
            )
            (and 
                 (bvule 
                        (_ bv2880154539 32)
                        ?B1
                 )
                 (bvule 
                        (_ bv40 32)
                        ?B1
                 )
            )
        )
)
(check-sat)
(get-value ( (select SMRAM_BASE (_ bv0 32) ) ) )
(get-value ( (select SMRAM_BASE (_ bv1 32) ) ) )
(get-value ( (select SMRAM_BASE (_ bv2 32) ) ) )
(get-value ( (select SMRAM_BASE (_ bv3 32) ) ) )
(get-value ( (select SMRAM_SIZE (_ bv0 32) ) ) )
(get-value ( (select SMRAM_SIZE (_ bv1 32) ) ) )
(get-value ( (select SMRAM_SIZE (_ bv2 32) ) ) )
(get-value ( (select SMRAM_SIZE (_ bv3 32) ) ) )
(exit)
;   OK -- Elapsed: 6.355103e-03s
;   Solvable: true
;     SMRAM_BASE = [176,171,171,171]
;     SMRAM_SIZE = [0,0,0,0]

; Query 4 -- Type: InitialValues, Instructions: 13512
; This file conforms to SMTLIBv2 and was generated by KLEE
(set-option :produce-models true)
(set-logic QF_AUFBV )
; Array declarations
(declare-fun SMRAM_BASE () (Array (_ BitVec 32) (_ BitVec 8) ) )
(declare-fun SMRAM_SIZE () (Array (_ BitVec 32) (_ BitVec 8) ) )
; Constraints
; Constraints and QueryExpr
(assert
        (let
            (
             (?B1
                 (bvadd 
                        (concat 
                                (select 
                                        SMRAM_BASE
                                        (_ bv3 32)
                                )
                                (concat 
                                        (select 
                                                SMRAM_BASE
                                                (_ bv2 32)
                                        )
                                        (concat 
                                                (select 
                                                        SMRAM_BASE
                                                        (_ bv1 32)
                                                )
                                                (select 
                                                        SMRAM_BASE
                                                        (_ bv0 32)
                                                )
                                        )
                                )
                        )
                        (concat 
                                (select 
                                        SMRAM_SIZE
                                        (_ bv3 32)
                                )
                                (concat 
                                        (select 
                                                SMRAM_SIZE
                                                (_ bv2 32)
                                        )
                                        (concat 
                                                (select 
                                                        SMRAM_SIZE
                                                        (_ bv1 32)
                                                )
                                                (select 
                                                        SMRAM_SIZE
                                                        (_ bv0 32)
                                                )
                                        )
                                )
                        )
                 )
             )
            )
            (and 
                 (and 
                      (bvule 
                             (_ bv2880154539 32)
                             (bvadd 
                                    (_ bv4294967256 32)
                                    ?B1
                             )
                      )
                      (bvule 
                             (_ bv40 32)
                             ?B1
                      )
                 )
                 (bvule 
                        (_ bv2880154539 32)
                        ?B1
                 )
            )
        )
)
(check-sat)
(get-value ( (select SMRAM_BASE (_ bv0 32) ) ) )
(get-value ( (select SMRAM_BASE (_ bv1 32) ) ) )
(get-value ( (select SMRAM_BASE (_ bv2 32) ) ) )
(get-value ( (select SMRAM_BASE (_ bv3 32) ) ) )
(get-value ( (select SMRAM_SIZE (_ bv0 32) ) ) )
(get-value ( (select SMRAM_SIZE (_ bv1 32) ) ) )
(get-value ( (select SMRAM_SIZE (_ bv2 32) ) ) )
(get-value ( (select SMRAM_SIZE (_ bv3 32) ) ) )
(exit)
;   OK -- Elapsed: 7.178610e-03s
;   Solvable: true
;     SMRAM_BASE = [249,226,7,161]
;     SMRAM_SIZE = [249,200,163,10]

; Query 5 -- Type: InitialValues, Instructions: 13530
; This file conforms to SMTLIBv2 and was generated by KLEE
(set-option :produce-models true)
(set-logic QF_AUFBV )
; Array declarations
(declare-fun CommBuffer () (Array (_ BitVec 32) (_ BitVec 8) ) )
; Constraints
; Constraints and QueryExpr
(assert
        (= 
           false
           (= 
              (_ bv0 64)
              (concat 
                      (select 
                              CommBuffer
                              (_ bv7 32)
                      )
                      (concat 
                              (select 
                                      CommBuffer
                                      (_ bv6 32)
                              )
                              (concat 
                                      (select 
                                              CommBuffer
                                              (_ bv5 32)
                                      )
                                      (concat 
                                              (select 
                                                      CommBuffer
                                                      (_ bv4 32)
                                              )
                                              (concat 
                                                      (select 
                                                              CommBuffer
                                                              (_ bv3 32)
                                                      )
                                                      (concat 
                                                              (select 
                                                                      CommBuffer
                                                                      (_ bv2 32)
                                                              )
                                                              (concat 
                                                                      (select 
                                                                              CommBuffer
                                                                              (_ bv1 32)
                                                                      )
                                                                      (select 
                                                                              CommBuffer
                                                                              (_ bv0 32)
                                                                      )
                                                              )
                                                      )
                                              )
                                      )
                              )
                      )
              )
           )
        )
)
(check-sat)
(get-value ( (select CommBuffer (_ bv0 32) ) ) )
(get-value ( (select CommBuffer (_ bv1 32) ) ) )
(get-value ( (select CommBuffer (_ bv2 32) ) ) )
(get-value ( (select CommBuffer (_ bv3 32) ) ) )
(get-value ( (select CommBuffer (_ bv4 32) ) ) )
(get-value ( (select CommBuffer (_ bv5 32) ) ) )
(get-value ( (select CommBuffer (_ bv6 32) ) ) )
(get-value ( (select CommBuffer (_ bv7 32) ) ) )
(get-value ( (select CommBuffer (_ bv8 32) ) ) )
(get-value ( (select CommBuffer (_ bv9 32) ) ) )
(get-value ( (select CommBuffer (_ bv10 32) ) ) )
(get-value ( (select CommBuffer (_ bv11 32) ) ) )
(get-value ( (select CommBuffer (_ bv12 32) ) ) )
(get-value ( (select CommBuffer (_ bv13 32) ) ) )
(get-value ( (select CommBuffer (_ bv14 32) ) ) )
(get-value ( (select CommBuffer (_ bv15 32) ) ) )
(get-value ( (select CommBuffer (_ bv16 32) ) ) )
(get-value ( (select CommBuffer (_ bv17 32) ) ) )
(get-value ( (select CommBuffer (_ bv18 32) ) ) )
(get-value ( (select CommBuffer (_ bv19 32) ) ) )
(get-value ( (select CommBuffer (_ bv20 32) ) ) )
(get-value ( (select CommBuffer (_ bv21 32) ) ) )
(get-value ( (select CommBuffer (_ bv22 32) ) ) )
(get-value ( (select CommBuffer (_ bv23 32) ) ) )
(get-value ( (select CommBuffer (_ bv24 32) ) ) )
(get-value ( (select CommBuffer (_ bv25 32) ) ) )
(get-value ( (select CommBuffer (_ bv26 32) ) ) )
(get-value ( (select CommBuffer (_ bv27 32) ) ) )
(get-value ( (select CommBuffer (_ bv28 32) ) ) )
(get-value ( (select CommBuffer (_ bv29 32) ) ) )
(get-value ( (select CommBuffer (_ bv30 32) ) ) )
(get-value ( (select CommBuffer (_ bv31 32) ) ) )
(get-value ( (select CommBuffer (_ bv32 32) ) ) )
(get-value ( (select CommBuffer (_ bv33 32) ) ) )
(get-value ( (select CommBuffer (_ bv34 32) ) ) )
(get-value ( (select CommBuffer (_ bv35 32) ) ) )
(get-value ( (select CommBuffer (_ bv36 32) ) ) )
(get-value ( (select CommBuffer (_ bv37 32) ) ) )
(get-value ( (select CommBuffer (_ bv38 32) ) ) )
(get-value ( (select CommBuffer (_ bv39 32) ) ) )
(exit)
;   OK -- Elapsed: 4.557653e-03s
;   Solvable: true
;     CommBuffer = [0,0,0,0,0,0,0,255,255,255,255,255,255,255,255,255,255,255,255,255,255,255,255,255,255,255,255,255,255,255,255,255,255,255,255,255,255,255,255,255]

